NAME : pairopt
TYPE : ACVRP
DIMENSION : 5
EDGE_WEIGHT_TYPE : EXPLICIT
EDGE_WEIGHT_FORMAT : FULL_MATRIX
CAPACITY : 130
VEHICLES : 2
EDGE_WEIGHT_SECTION
100000 -100000 -100000 100000 100000 
100000 100000 1000000 243 -263 
100000 1000000 100000 401 1010 
0 0 0 100000 141 
0 0 0 141 100000 
DEMAND_SECTION
1 0
2 0
3 0
4 94
5 79
DEPOT_SECTION
1
EOF